p edge 26 156
e 1 7
e 1 17
e 1 20
e 1 22
e 1 23
e 1 25
e 2 5
e 2 7
e 2 11
e 2 18
e 2 19
e 2 19
e 3 4
e 3 12
e 3 13
e 3 16
e 3 22
e 3 23
e 4 1
e 4 1
e 4 5
e 4 6
e 4 18
e 4 24
e 5 10
e 5 10
e 5 18
e 5 20
e 5 21
e 5 21
e 6 1
e 6 12
e 6 19
e 6 19
e 6 23
e 6 25
e 7 11
e 7 15
e 7 17
e 7 19
e 7 22
e 7 25
e 8 3
e 8 14
e 8 15
e 8 18
e 8 19
e 8 22
e 9 6
e 9 13
e 9 14
e 9 18
e 9 19
e 9 19
e 10 3
e 10 7
e 10 12
e 10 23
e 10 23
e 10 26
e 11 14
e 11 18
e 11 20
e 11 22
e 11 22
e 11 26
e 12 3
e 12 5
e 12 15
e 12 23
e 12 24
e 12 26
e 13 6
e 13 15
e 13 16
e 13 18
e 13 19
e 13 24
e 14 3
e 14 8
e 14 9
e 14 16
e 14 23
e 14 24
e 15 3
e 15 16
e 15 16
e 15 17
e 15 17
e 15 26
e 16 6
e 16 11
e 16 15
e 16 23
e 16 25
e 16 26
e 17 5
e 17 9
e 17 9
e 17 12
e 17 12
e 17 23
e 18 1
e 18 6
e 18 6
e 18 8
e 18 15
e 18 22
e 19 1
e 19 2
e 19 5
e 19 9
e 19 12
e 19 22
e 20 1
e 20 9
e 20 16
e 20 18
e 20 25
e 20 26
e 21 2
e 21 5
e 21 13
e 21 23
e 21 23
e 21 26
e 22 3
e 22 16
e 22 19
e 22 23
e 22 24
e 22 25
e 23 4
e 23 7
e 23 9
e 23 11
e 23 18
e 23 26
e 24 6
e 24 8
e 24 10
e 24 13
e 24 14
e 24 19
e 25 5
e 25 10
e 25 10
e 25 14
e 25 14
e 25 22
e 26 7
e 26 7
e 26 8
e 26 21
e 26 21
e 26 24
